32
100
69	1
66	1
65	2
64	1
63	2
62	1
60	1
59	3
56	1
53	2
51	3
50	1
49	1
47	1
46	3
45	1
39	1
38	1
36	2
34	1
32	4
31	2
30	1
28	2
26	3
25	1
24	1
22	2
20	1
19	1
18	1
16	1
